TITL 1 in C2/m
    test.res
    created by SHELXL-2018/3 at 10:16:19 on 30-May-2018
CELL 0.71073  15.8567   4.3147   7.0971  90.000 106.878  90.000
ZERR    2.00   0.0031   0.0008   0.0014   0.000   0.003   0.000
LATT  7
SYMM -X, Y, -Z
SFAC GE RH IN SM
UNIT 8 4 2 8
TEMP 23.000
SIZE 0.014 0.018 0.10

L.S. 4

FMAP  2
PLAN  20
L.S.  4
WGHT    0.008500
EXTI    0.001550
FVAR       0.10631   0.97174
SM1   4    0.086939    0.000000    0.881237    10.50000    0.00649    0.00424 =
         0.00639    0.00000    0.00221    0.00000
SM2   4    0.153595    0.000000    0.433026    10.50000    0.00725    0.00506 =
         0.00541    0.00000    0.00126    0.00000
IN3   3    0.000000   -0.500000    0.500000    20.25000    0.00847    0.00659 =
         0.00733    0.00000    0.00302    0.00000
RH4   2    0.280216    0.000000    0.874817    10.50000    0.00708    0.00421 =
         0.00637    0.00000    0.00215    0.00000
GE5   1   -0.064685   -0.500000    0.842778    10.50000    0.00678    0.00478 =
         0.00556    0.00000    0.00163    0.00000
GE6   1    0.203024   -0.500000    0.760938    10.50000    0.00903    0.00433 =
         0.00628    0.00000    0.00282    0.00000
HKLF 4




REM  1 in C2/m
REM wR2 = 0.0531, GooF = S = 0.956, Restrained GooF = 0.956 for all data
REM R1 = 0.0267 for 813 Fo > 4sig(Fo) and 0.0332 for all 977 data
REM 37 parameters refined using 0 restraints

END  
     
WGHT      0.0085      0.0000 

REM Highest difference peak  3.651,  deepest hole -2.213,  1-sigma level  0.534
Q1    1   0.1359  0.0000  0.9230  10.50000  0.05    3.65
Q2    1   0.2006  0.0000  0.4936  10.50000  0.05    3.10
Q3    1   0.0405  0.0000  0.8305  10.50000  0.05    3.08
Q4    1   0.0926  0.0000  0.7812  10.50000  0.05    3.06
Q5    1  -0.0424 -0.5000  0.4607  10.50000  0.05    2.99
Q6    1   0.2299  0.0000  0.8494  10.50000  0.05    2.90
Q7    1   0.1048  0.0000  0.3728  10.50000  0.05    2.72
Q8    1   0.3291  0.0000  0.9208  10.50000  0.05    2.70
Q9    1  -0.1136 -0.5000  0.7868  10.50000  0.05    2.10
Q10   1   0.0000 -0.5000  1.0000  10.25000  0.05    1.91
Q11   1   0.2704 -0.6765  0.7554  11.00000  0.05    1.88
Q12   1  -0.0175 -0.5000  0.8718  10.50000  0.05    1.83
Q13   1   0.2179  0.0000  0.6546  10.50000  0.05    1.82
Q14   1  -0.0062 -0.5000  0.5915  10.50000  0.05    1.71
Q15   1   0.1603  0.0000  0.3420  10.50000  0.05    1.70
Q16   1   0.2492 -0.5000  0.8049  10.50000  0.05    1.67
Q17   1  -0.0664 -0.3085  0.4790  11.00000  0.05    1.64
Q18   1   0.1501 -0.5000  0.6841  10.50000  0.05    1.54
Q19   1   0.0873  0.0000  0.9827  10.50000  0.05    1.50
Q20   1  -0.1446 -0.2991  0.8086  11.00000  0.05    1.32
