TITL 1 in C2/m
    test.res
    created by SHELXL-2018/3 at 10:15:16 on 30-May-2018
CELL 0.71073  15.8567   4.3147   7.0971  90.000 106.878  90.000
ZERR    2.00   0.0031   0.0008   0.0014   0.000   0.003   0.000
LATT  7
SYMM -X, Y, -Z
SFAC GE RH IN SM
UNIT 8 4 2 8
TEMP 23.000
SIZE 0.014 0.018 0.10

L.S. 4

FMAP  2
PLAN  20
L.S.  4
WGHT    0.100000
EXTI    0.001202
FVAR       0.10588   0.88611
SM1   4    0.086905    0.000000    0.881322    10.50000    0.00634    0.00466 =
         0.00623    0.00000    0.00200    0.00000
SM2   4    0.153622    0.000000    0.433020    10.50000    0.00701    0.00554 =
         0.00548    0.00000    0.00113    0.00000
RH3   2    0.000000   -0.500000    0.500000    10.25000    0.00560    0.00376 =
         0.00431    0.00000    0.00210    0.00000
IN4   3    0.280199    0.000000    0.874747    20.50000    0.00669    0.00413 =
         0.00573    0.00000    0.00202    0.00000
GE5   1   -0.064640   -0.500000    0.842648    10.50000    0.00719    0.00493 =
         0.00538    0.00000    0.00191    0.00000
GE6   1    0.202931   -0.500000    0.760832    10.50000    0.00848    0.00451 =
         0.00657    0.00000    0.00255    0.00000
HKLF 4




REM  1 in C2/m
REM wR2 = 0.0932, GooF = S = 0.655, Restrained GooF = 0.655 for all data
REM R1 = 0.0304 for 813 Fo > 4sig(Fo) and 0.0369 for all 977 data
REM 37 parameters refined using 0 restraints

END  
     
WGHT      0.0313      0.0000 

REM Highest difference peak  4.219,  deepest hole -2.430,  1-sigma level  0.586
Q1    1  -0.0325 -0.5000  0.4698  10.50000  0.05    4.22
Q2    1   0.1348  0.0000  0.9178  10.50000  0.05    3.31
Q3    1  -0.0036 -0.5000  0.5544  10.50000  0.05    3.17
Q4    1   0.2312  0.0000  0.8504  10.50000  0.05    2.95
Q5    1   0.2004  0.0000  0.4905  10.50000  0.05    2.86
Q6    1   0.0408  0.0000  0.8315  10.50000  0.05    2.74
Q7    1   0.3298  0.0000  0.9234  10.50000  0.05    2.56
Q8    1   0.0929  0.0000  0.7828  10.50000  0.05    2.49
Q9    1   0.1048  0.0000  0.3730  10.50000  0.05    2.44
Q10   1   0.0000 -0.5000  1.0000  10.25000  0.05    1.96
Q11   1   0.2703 -0.6761  0.7559  11.00000  0.05    1.92
Q12   1   0.2175  0.0000  0.6541  10.50000  0.05    1.86
Q13   1  -0.0663 -0.3112  0.4784  11.00000  0.05    1.80
Q14   1  -0.0151 -0.5000  0.8748  10.50000  0.05    1.59
Q15   1  -0.1134 -0.5000  0.7840  10.50000  0.05    1.59
Q16   1   0.1624  0.0000  0.3350  10.50000  0.05    1.48
Q17   1   0.1509 -0.5000  0.6883  10.50000  0.05    1.42
Q18   1   0.1588  0.2627  0.9034  11.00000  0.05    1.39
Q19   1   0.0916  0.2495  0.4606  11.00000  0.05    1.38
Q20   1   0.3492  0.1742  0.8815  11.00000  0.05    1.36
