TITL 1 in C2/m
    test.res
    created by SHELXL-2018/3 at 10:16:20 on 30-May-2018
CELL 0.71073  15.8567   4.3147   7.0971  90.000 106.878  90.000
ZERR    2.00   0.0031   0.0008   0.0014   0.000   0.003   0.000
LATT  7
SYMM -X, Y, -Z
SFAC GE RH IN SM
UNIT 8 4 2 8
TEMP 23.000
SIZE 0.014 0.018 0.10

L.S. 4

FMAP  2
PLAN  20
L.S.  4
WGHT    0.011300
EXTI    0.001647
FVAR       0.10655   0.66460
SM1   4    0.086946    0.000000    0.881218    10.50000    0.00652    0.00432 =
         0.00649    0.00000    0.00222    0.00000
SM2   4    0.153594    0.000000    0.433015    10.50000    0.00734    0.00519 =
         0.00550    0.00000    0.00133    0.00000
IN3   3    0.000000   -0.500000    0.500000    10.25000    0.01002    0.00800 =
         0.00866    0.00000    0.00359    0.00000
RH4   2    0.280221    0.000000    0.874838    10.50000    0.00708    0.00434 =
         0.00645    0.00000    0.00211    0.00000
IN5   3   -0.064685   -0.500000    0.842788    20.50000    0.00754    0.00584 =
         0.00654    0.00000    0.00169    0.00000
GE6   1    0.203035   -0.500000    0.761008    10.50000    0.00910    0.00429 =
         0.00637    0.00000    0.00283    0.00000
HKLF 4




REM  1 in C2/m
REM wR2 = 0.0565, GooF = S = 0.983, Restrained GooF = 0.983 for all data
REM R1 = 0.0269 for 813 Fo > 4sig(Fo) and 0.0340 for all 977 data
REM 37 parameters refined using 0 restraints

END  
     
WGHT      0.0112      0.0000 

REM Highest difference peak  3.753,  deepest hole -2.357,  1-sigma level  0.542
Q1    1   0.1364  0.0000  0.9229  10.50000  0.05    3.75
Q2    1   0.0394  0.0000  0.8285  10.50000  0.05    3.19
Q3    1   0.0926  0.0000  0.7792  10.50000  0.05    3.04
Q4    1   0.2011  0.0000  0.4911  10.50000  0.05    3.03
Q5    1   0.2297  0.0000  0.8491  10.50000  0.05    2.94
Q6    1   0.3291  0.0000  0.9184  10.50000  0.05    2.85
Q7    1   0.1053  0.0000  0.3790  10.50000  0.05    2.78
Q8    1  -0.0462 -0.5000  0.4545  10.50000  0.05    2.52
Q9    1   0.0000 -0.5000  1.0000  10.25000  0.05    2.41
Q10   1  -0.0240 -0.5000  0.8749  10.50000  0.05    2.02
Q11   1  -0.1092 -0.5000  0.7893  10.50000  0.05    2.01
Q12   1   0.2489 -0.5000  0.8080  10.50000  0.05    1.92
Q13   1   0.2704 -0.6747  0.7572  11.00000  0.05    1.82
Q14   1   0.1598  0.0000  0.3406  10.50000  0.05    1.77
Q15   1   0.1500 -0.5000  0.6810  10.50000  0.05    1.69
Q16   1   0.2179  0.0000  0.6554  10.50000  0.05    1.67
Q17   1   0.0890  0.0000  0.9825  10.50000  0.05    1.63
Q18   1  -0.0080 -0.5000  0.5987  10.50000  0.05    1.58
Q19   1  -0.0666 -0.3084  0.4811  11.00000  0.05    1.54
Q20   1  -0.0664 -0.5000  0.7649  10.50000  0.05    1.46
