TITL 1 in C2/m
    test.res
    created by SHELXL-2018/3 at 10:16:27 on 30-May-2018
CELL 0.71073  15.8567   4.3147   7.0971  90.000 106.878  90.000
ZERR    2.00   0.0031   0.0008   0.0014   0.000   0.003   0.000
LATT  7
SYMM -X, Y, -Z
SFAC GE RH IN SM
UNIT 8 4 2 8
TEMP 23.000
SIZE 0.014 0.018 0.10

L.S. 4

FMAP  2
PLAN  20
L.S.  4
WGHT    0.012900
EXTI    0.001660
FVAR       0.10653   0.67210
SM1   4    0.086943    0.000000    0.881219    10.50000    0.00648    0.00430 =
         0.00650    0.00000    0.00221    0.00000
SM2   4    0.153586    0.000000    0.433010    10.50000    0.00727    0.00514 =
         0.00554    0.00000    0.00130    0.00000
IN3   3    0.000000   -0.500000    0.500000    10.25000    0.00982    0.00806 =
         0.00874    0.00000    0.00353    0.00000
RH4   2    0.280215    0.000000    0.874825    10.50000    0.00721    0.00429 =
         0.00642    0.00000    0.00220    0.00000
GE5   1   -0.064702   -0.500000    0.842761    10.50000    0.00674    0.00485 =
         0.00575    0.00000    0.00156    0.00000
IN6   3    0.203056   -0.500000    0.761026    20.50000    0.01046    0.00584 =
         0.00760    0.00000    0.00318    0.00000
HKLF 4




REM  1 in C2/m
REM wR2 = 0.0577, GooF = S = 0.982, Restrained GooF = 0.982 for all data
REM R1 = 0.0273 for 813 Fo > 4sig(Fo) and 0.0340 for all 977 data
REM 37 parameters refined using 0 restraints

END  
     
WGHT      0.0127      0.0000 

REM Highest difference peak  3.674,  deepest hole -2.452,  1-sigma level  0.549
Q1    1   0.1358  0.0000  0.9216  10.50000  0.05    3.67
Q2    1   0.0408  0.0000  0.8314  10.50000  0.05    3.20
Q3    1   0.0925  0.0000  0.7797  10.50000  0.05    3.19
Q4    1   0.2000  0.0000  0.4951  10.50000  0.05    3.04
Q5    1   0.2298  0.0000  0.8497  10.50000  0.05    2.92
Q6    1   0.3291  0.0000  0.9207  10.50000  0.05    2.82
Q7    1   0.1048  0.0000  0.3736  10.50000  0.05    2.71
Q8    1  -0.0453 -0.5000  0.4547  10.50000  0.05    2.65
Q9    1  -0.1137 -0.5000  0.7874  10.50000  0.05    2.23
Q10   1   0.0000 -0.5000  1.0000  10.25000  0.05    1.95
Q11   1   0.2699 -0.6734  0.7559  11.00000  0.05    1.91
Q12   1  -0.0190 -0.5000  0.8714  10.50000  0.05    1.90
Q13   1   0.2429 -0.5000  0.8016  10.50000  0.05    1.74
Q14   1   0.2144  0.0000  0.6457  10.50000  0.05    1.71
Q15   1  -0.0085 -0.5000  0.5991  10.50000  0.05    1.70
Q16   1   0.1598  0.0000  0.3424  10.50000  0.05    1.62
Q17   1  -0.0663 -0.3047  0.4799  11.00000  0.05    1.57
Q18   1   0.0873  0.0000  0.9836  10.50000  0.05    1.57
Q19   1   0.2911  0.0000  0.8055  10.50000  0.05    1.45
Q20   1  -0.1448 -0.2937  0.8086  11.00000  0.05    1.38
