TITL 1 in C2/m
    test.res
    created by SHELXL-2018/3 at 10:15:01 on 30-May-2018
CELL 0.71073  15.8567   4.3147   7.0971  90.000 106.878  90.000
ZERR    2.00   0.0031   0.0008   0.0014   0.000   0.003   0.000
LATT  7
SYMM -X, Y, -Z
SFAC GE RH IN SM
UNIT 8 4 2 8
TEMP 23.000
SIZE 0.014 0.018 0.10

L.S. 4

FMAP  2
PLAN  20
L.S.  4
WGHT    0.100000
EXTI    0.001205
FVAR       0.10599   0.67477
SM1   4    0.086902    0.000000    0.881356    10.50000    0.00640    0.00474 =
         0.00629    0.00000    0.00204    0.00000
SM2   4    0.153618    0.000000    0.433016    10.50000    0.00703    0.00565 =
         0.00554    0.00000    0.00116    0.00000
RH3   2    0.000000   -0.500000    0.500000    10.25000    0.00580    0.00380 =
         0.00425    0.00000    0.00216    0.00000
RH4   2    0.280199    0.000000    0.874759    10.50000    0.00710    0.00471 =
         0.00629    0.00000    0.00213    0.00000
IN5   3   -0.064639   -0.500000    0.842620    20.50000    0.00892    0.00683 =
         0.00725    0.00000    0.00243    0.00000
GE6   1    0.202926   -0.500000    0.760817    10.50000    0.00860    0.00451 =
         0.00673    0.00000    0.00257    0.00000
HKLF 4




REM  1 in C2/m
REM wR2 = 0.0943, GooF = S = 0.663, Restrained GooF = 0.663 for all data
REM R1 = 0.0303 for 813 Fo > 4sig(Fo) and 0.0372 for all 977 data
REM 37 parameters refined using 0 restraints

END  
     
WGHT      0.0321      0.0000 

REM Highest difference peak  4.033,  deepest hole -2.331,  1-sigma level  0.587
Q1    1  -0.0330 -0.5000  0.4695  10.50000  0.05    4.03
Q2    1  -0.0031 -0.5000  0.5551  10.50000  0.05    3.41
Q3    1   0.1353  0.0000  0.9237  10.50000  0.05    3.29
Q4    1   0.1997  0.0000  0.4893  10.50000  0.05    2.84
Q5    1   0.2316  0.0000  0.8501  10.50000  0.05    2.80
Q6    1   0.0407  0.0000  0.8313  10.50000  0.05    2.69
Q7    1   0.1052  0.0000  0.3794  10.50000  0.05    2.45
Q8    1   0.3292  0.0000  0.9208  10.50000  0.05    2.44
Q9    1   0.0000 -0.5000  1.0000  10.25000  0.05    2.36
Q10   1   0.0929  0.0000  0.7830  10.50000  0.05    2.29
Q11   1   0.2703 -0.6758  0.7577  11.00000  0.05    1.93
Q12   1   0.2174  0.0000  0.6543  10.50000  0.05    1.85
Q13   1  -0.0665 -0.3132  0.4793  11.00000  0.05    1.80
Q14   1   0.1622  0.0000  0.3333  10.50000  0.05    1.52
Q15   1   0.1510 -0.5000  0.6870  10.50000  0.05    1.46
Q16   1   0.0853  0.1404  0.5635  11.00000  0.05    1.45
Q17   1   0.0231  0.0000  0.9787  10.50000  0.05    1.44
Q18   1  -0.0183 -0.5000  0.8754  10.50000  0.05    1.43
Q19   1   0.2456 -0.5000  0.7998  10.50000  0.05    1.40
Q20   1   0.0913  0.2469  0.4644  11.00000  0.05    1.40
