TITL 1 in C2/m
    test.res
    created by SHELXL-2018/3 at 10:15:03 on 30-May-2018
CELL 0.71073  15.8567   4.3147   7.0971  90.000 106.878  90.000
ZERR    2.00   0.0031   0.0008   0.0014   0.000   0.003   0.000
LATT  7
SYMM -X, Y, -Z
SFAC GE RH IN SM
UNIT 8 4 2 8
TEMP 23.000
SIZE 0.014 0.018 0.10

L.S. 4

FMAP  2
PLAN  20
L.S.  4
WGHT    0.100000
EXTI    0.001182
FVAR       0.10601   0.66748
SM1   4    0.086912    0.000000    0.881309    10.50000    0.00636    0.00475 =
         0.00634    0.00000    0.00201    0.00000
SM2   4    0.153619    0.000000    0.433017    10.50000    0.00704    0.00560 =
         0.00561    0.00000    0.00114    0.00000
RH3   2    0.000000   -0.500000    0.500000    10.25000    0.00557    0.00388 =
         0.00444    0.00000    0.00208    0.00000
RH4   2    0.280196    0.000000    0.874751    10.50000    0.00742    0.00463 =
         0.00624    0.00000    0.00228    0.00000
GE5   1   -0.064642   -0.500000    0.842601    10.50000    0.00718    0.00501 =
         0.00561    0.00000    0.00184    0.00000
IN6   3    0.202931   -0.500000    0.760855    20.50000    0.01006    0.00596 =
         0.00783    0.00000    0.00304    0.00000
HKLF 4




REM  1 in C2/m
REM wR2 = 0.0943, GooF = S = 0.663, Restrained GooF = 0.663 for all data
REM R1 = 0.0308 for 813 Fo > 4sig(Fo) and 0.0374 for all 977 data
REM 37 parameters refined using 0 restraints

END  
     
WGHT      0.0310      0.0000 

REM Highest difference peak  4.376,  deepest hole -2.535,  1-sigma level  0.595
Q1    1  -0.0277 -0.5000  0.4700  10.50000  0.05    4.38
Q2    1   0.1351  0.0000  0.9222  10.50000  0.05    3.22
Q3    1  -0.0036 -0.5000  0.5519  10.50000  0.05    3.00
Q4    1   0.2311  0.0000  0.8508  10.50000  0.05    2.77
Q5    1   0.2002  0.0000  0.4926  10.50000  0.05    2.74
Q6    1   0.0406  0.0000  0.8333  10.50000  0.05    2.70
Q7    1   0.0930  0.0000  0.7810  10.50000  0.05    2.49
Q8    1   0.3299  0.0000  0.9236  10.50000  0.05    2.43
Q9    1   0.1038  0.0000  0.3761  10.50000  0.05    2.35
Q10   1  -0.0108 -0.5000  0.9832  10.50000  0.05    2.04
Q11   1   0.2700 -0.6745  0.7566  11.00000  0.05    1.95
Q12   1  -0.0662 -0.3100  0.4782  11.00000  0.05    1.84
Q13   1   0.2169  0.0000  0.6533  10.50000  0.05    1.82
Q14   1  -0.1133 -0.5000  0.7847  10.50000  0.05    1.65
Q15   1   0.2276 -0.5000  0.7924  10.50000  0.05    1.63
Q16   1  -0.0161 -0.5000  0.8738  10.50000  0.05    1.51
Q17   1   0.0917  0.2498  0.4577  11.00000  0.05    1.46
Q18   1   0.0845  0.1293  0.5562  11.00000  0.05    1.45
Q19   1  -0.1467 -0.2876  0.7974  11.00000  0.05    1.43
Q20   1   0.0812  0.2244  0.4141  11.00000  0.05    1.38
