TITL 1 in C2/m
    test.res
    created by SHELXL-2018/3 at 10:15:36 on 30-May-2018
CELL 0.71073  15.8567   4.3147   7.0971  90.000 106.878  90.000
ZERR    2.00   0.0031   0.0008   0.0014   0.000   0.003   0.000
LATT  7
SYMM -X, Y, -Z
SFAC GE RH IN SM
UNIT 8 4 2 8
TEMP 23.000
SIZE 0.014 0.018 0.10

L.S. 4

FMAP  2
PLAN  20
L.S.  4
WGHT    0.017600
EXTI    0.001649
FVAR       0.10666   0.74525
SM1   4    0.086939    0.000000    0.881237    10.50000    0.00655    0.00439 =
         0.00653    0.00000    0.00223    0.00000
SM2   4    0.153592    0.000000    0.433014    10.50000    0.00735    0.00532 =
         0.00553    0.00000    0.00133    0.00000
IN3   3    0.000000   -0.500000    0.500000    10.25000    0.01012    0.00807 =
         0.00864    0.00000    0.00363    0.00000
RH4   2    0.280212    0.000000    0.874827    10.50000    0.00705    0.00446 =
         0.00650    0.00000    0.00211    0.00000
RH5   2   -0.064691   -0.500000    0.842763    20.50000    0.00776    0.00611 =
         0.00676    0.00000    0.00175    0.00000
GE6   1    0.203030   -0.500000    0.761020    10.50000    0.00909    0.00432 =
         0.00644    0.00000    0.00283    0.00000
HKLF 4




REM  1 in C2/m
REM wR2 = 0.0603, GooF = S = 0.962, Restrained GooF = 0.962 for all data
REM R1 = 0.0272 for 813 Fo > 4sig(Fo) and 0.0343 for all 977 data
REM 37 parameters refined using 0 restraints

END  
     
WGHT      0.0141      0.0000 

REM Highest difference peak  3.716,  deepest hole -2.353,  1-sigma level  0.546
Q1    1   0.1364  0.0000  0.9228  10.50000  0.05    3.72
Q2    1   0.0394  0.0000  0.8286  10.50000  0.05    3.18
Q3    1   0.2009  0.0000  0.4910  10.50000  0.05    3.03
Q4    1   0.0926  0.0000  0.7790  10.50000  0.05    2.99
Q5    1   0.2297  0.0000  0.8490  10.50000  0.05    2.95
Q6    1   0.3289  0.0000  0.9181  10.50000  0.05    2.88
Q7    1   0.1054  0.0000  0.3792  10.50000  0.05    2.81
Q8    1  -0.0466 -0.5000  0.4545  10.50000  0.05    2.53
Q9    1   0.0000 -0.5000  1.0000  10.25000  0.05    2.41
Q10   1  -0.0255 -0.5000  0.8723  10.50000  0.05    2.07
Q11   1   0.2487 -0.5000  0.8078  10.50000  0.05    1.93
Q12   1  -0.1041 -0.5000  0.7954  10.50000  0.05    1.92
Q13   1   0.2703 -0.6745  0.7576  11.00000  0.05    1.83
Q14   1   0.1598  0.0000  0.3399  10.50000  0.05    1.78
Q15   1   0.1499 -0.5000  0.6811  10.50000  0.05    1.71
Q16   1   0.2178  0.0000  0.6558  10.50000  0.05    1.66
Q17   1   0.0888  0.0000  0.9831  10.50000  0.05    1.63
Q18   1  -0.0079 -0.5000  0.5983  10.50000  0.05    1.59
Q19   1  -0.0667 -0.3079  0.4812  11.00000  0.05    1.53
Q20   1  -0.0667 -0.5000  0.7682  10.50000  0.05    1.50
