TITL 1 in C2/m
    test.res
    created by SHELXL-2018/3 at 10:16:23 on 30-May-2018
CELL 0.71073  15.8567   4.3147   7.0971  90.000 106.878  90.000
ZERR    2.00   0.0031   0.0008   0.0014   0.000   0.003   0.000
LATT  7
SYMM -X, Y, -Z
SFAC GE RH IN SM
UNIT 8 4 2 8
TEMP 23.000
SIZE 0.014 0.018 0.10

L.S. 4

FMAP  2
PLAN  20
L.S.  4
WGHT    0.015300
EXTI    0.001691
FVAR       0.10672   0.75413
SM1   4    0.086943    0.000000    0.881228    10.50000    0.00653    0.00439 =
         0.00656    0.00000    0.00223    0.00000
SM2   4    0.153586    0.000000    0.433013    10.50000    0.00731    0.00523 =
         0.00562    0.00000    0.00132    0.00000
IN3   3    0.000000   -0.500000    0.500000    10.25000    0.00986    0.00814 =
         0.00880    0.00000    0.00353    0.00000
RH4   2    0.280208    0.000000    0.874817    10.50000    0.00730    0.00437 =
         0.00647    0.00000    0.00223    0.00000
GE5   1   -0.064705   -0.500000    0.842739    10.50000    0.00679    0.00491 =
         0.00584    0.00000    0.00156    0.00000
RH6   2    0.203055   -0.500000    0.761040    20.50000    0.01070    0.00609 =
         0.00786    0.00000    0.00324    0.00000
HKLF 4




REM  1 in C2/m
REM wR2 = 0.0600, GooF = S = 0.988, Restrained GooF = 0.988 for all data
REM R1 = 0.0277 for 813 Fo > 4sig(Fo) and 0.0343 for all 977 data
REM 37 parameters refined using 0 restraints

END  
     
WGHT      0.0155      0.0000 

REM Highest difference peak  3.678,  deepest hole -2.431,  1-sigma level  0.553
Q1    1   0.1359  0.0000  0.9215  10.50000  0.05    3.68
Q2    1   0.0407  0.0000  0.8316  10.50000  0.05    3.24
Q3    1   0.0925  0.0000  0.7794  10.50000  0.05    3.22
Q4    1   0.2001  0.0000  0.4956  10.50000  0.05    3.05
Q5    1   0.2297  0.0000  0.8497  10.50000  0.05    2.94
Q6    1   0.3292  0.0000  0.9208  10.50000  0.05    2.81
Q7    1   0.1047  0.0000  0.3736  10.50000  0.05    2.72
Q8    1  -0.0453 -0.5000  0.4546  10.50000  0.05    2.71
Q9    1  -0.1137 -0.5000  0.7872  10.50000  0.05    2.22
Q10   1   0.0000 -0.5000  1.0000  10.25000  0.05    1.96
Q11   1   0.2701 -0.6740  0.7560  11.00000  0.05    1.91
Q12   1  -0.0191 -0.5000  0.8711  10.50000  0.05    1.89
Q13   1   0.2415 -0.5000  0.8013  10.50000  0.05    1.82
Q14   1  -0.0085 -0.5000  0.5994  10.50000  0.05    1.75
Q15   1   0.2142  0.0000  0.6463  10.50000  0.05    1.72
Q16   1   0.1598  0.0000  0.3417  10.50000  0.05    1.61
Q17   1  -0.0665 -0.3050  0.4797  11.00000  0.05    1.59
Q18   1   0.0869  0.0000  0.9844  10.50000  0.05    1.59
Q19   1   0.2913  0.0000  0.8057  10.50000  0.05    1.43
Q20   1   0.2914 -0.5000  0.7949  10.50000  0.05    1.39
