TITL 1 in C2/m
    test.res
    created by SHELXL-2018/3 at 10:16:37 on 30-May-2018
CELL 0.71073  15.8567   4.3147   7.0971  90.000 106.878  90.000
ZERR    2.00   0.0031   0.0008   0.0014   0.000   0.003   0.000
LATT  7
SYMM -X, Y, -Z
SFAC GE RH IN SM
UNIT 8 4 2 8
TEMP 23.000
SIZE 0.014 0.018 0.10

L.S. 4

FMAP  2
PLAN  20
L.S.  4
WGHT    0.040200   19.636301
EXTI    0.001075
FVAR       0.10326   0.76879
SM1   4    0.086933    0.000000    0.881291    10.50000    0.00560    0.00359 =
         0.00531    0.00000    0.00195    0.00000
SM2   4    0.153626    0.000000    0.432977    10.50000    0.00601    0.00454 =
         0.00434    0.00000    0.00078    0.00000
RH3   2    0.000000   -0.500000    0.500000    10.25000    0.00444    0.00269 =
         0.00296    0.00000    0.00139    0.00000
IN4   3    0.280200    0.000000    0.874806    10.50000    0.01048    0.00807 =
         0.00995    0.00000    0.00344    0.00000
RH5   2   -0.064660   -0.500000    0.842478    20.50000    0.00845    0.00656 =
         0.00663    0.00000    0.00193    0.00000
GE6   1    0.202990   -0.500000    0.760997    10.50000    0.00726    0.00368 =
         0.00577    0.00000    0.00230    0.00000
HKLF 4




REM  1 in C2/m
REM wR2 = 0.0997, GooF = S = 1.085, Restrained GooF = 1.085 for all data
REM R1 = 0.0357 for 813 Fo > 4sig(Fo) and 0.0429 for all 977 data
REM 37 parameters refined using 0 restraints

END  
     
WGHT      0.0423     15.4030 

REM Highest difference peak  5.363,  deepest hole -5.033,  1-sigma level  0.728
Q1    1  -0.0306 -0.5000  0.4669  10.50000  0.05    5.36
Q2    1   0.0046 -0.5000  0.4441  10.50000  0.05    4.63
Q3    1   0.1335  0.0000  0.9165  10.50000  0.05    3.68
Q4    1   0.1953  0.0000  0.4838  10.50000  0.05    3.42
Q5    1   0.2279  0.0000  0.8542  10.50000  0.05    3.17
Q6    1   0.1087  0.0000  0.3804  10.50000  0.05    2.88
Q7    1   0.0928  0.0000  0.7992  10.50000  0.05    2.77
Q8    1   0.0442  0.0000  0.8332  10.50000  0.05    2.63
Q9    1   0.3351  0.0000  0.9134  10.50000  0.05    2.25
Q10   1   0.1591  0.0000  0.3496  10.50000  0.05    2.09
Q11   1   0.2708 -0.6746  0.7577  11.00000  0.05    1.99
Q12   1   0.0000 -0.5000  1.0000  10.25000  0.05    1.92
Q13   1   0.0886  0.0000  0.9736  10.50000  0.05    1.89
Q14   1  -0.0657 -0.3120  0.4794  11.00000  0.05    1.88
Q15   1   0.2373 -0.5000  0.7847  10.50000  0.05    1.80
Q16   1  -0.0733 -0.5000  0.8879  10.50000  0.05    1.78
Q17   1   0.0847  0.1425  0.5556  11.00000  0.05    1.63
Q18   1   0.2173  0.0000  0.6437  10.50000  0.05    1.61
Q19   1   0.2454  0.1492  0.7749  11.00000  0.05    1.54
Q20   1   0.1909  0.1543  0.5667  11.00000  0.05    1.51
