TITL 1 in C2/m
    test.res
    created by SHELXL-2018/3 at 10:16:39 on 30-May-2018
CELL 0.71073  15.8567   4.3147   7.0971  90.000 106.878  90.000
ZERR    2.00   0.0031   0.0008   0.0014   0.000   0.003   0.000
LATT  7
SYMM -X, Y, -Z
SFAC GE RH IN SM
UNIT 8 4 2 8
TEMP 23.000
SIZE 0.014 0.018 0.10

L.S. 4

FMAP  2
PLAN  20
L.S.  4
WGHT    0.045700   12.478200
EXTI    0.001003
FVAR       0.10316   0.74742
SM1   4    0.086943    0.000000    0.881285    10.50000    0.00553    0.00360 =
         0.00532    0.00000    0.00192    0.00000
SM2   4    0.153615    0.000000    0.432957    10.50000    0.00600    0.00454 =
         0.00439    0.00000    0.00076    0.00000
RH3   2    0.000000   -0.500000    0.500000    10.25000    0.00427    0.00270 =
         0.00303    0.00000    0.00133    0.00000
IN4   3    0.280190    0.000000    0.874796    10.50000    0.01075    0.00809 =
         0.00989    0.00000    0.00357    0.00000
GE5   1   -0.064680   -0.500000    0.842451    10.50000    0.00602    0.00397 =
         0.00400    0.00000    0.00117    0.00000
RH6   2    0.203001   -0.500000    0.761048    20.50000    0.00874    0.00525 =
         0.00713    0.00000    0.00277    0.00000
HKLF 4




REM  1 in C2/m
REM wR2 = 0.1045, GooF = S = 1.111, Restrained GooF = 1.111 for all data
REM R1 = 0.0367 for 813 Fo > 4sig(Fo) and 0.0440 for all 977 data
REM 37 parameters refined using 0 restraints

END  
     
WGHT      0.0454     12.7401 

REM Highest difference peak  5.585,  deepest hole -5.139,  1-sigma level  0.740
Q1    1  -0.0306 -0.5000  0.4672  10.50000  0.05    5.58
Q2    1   0.0047 -0.5000  0.4450  10.50000  0.05    4.37
Q3    1   0.0000 -0.4214  0.5000  10.50000  0.05    4.25
Q4    1   0.1333  0.0000  0.9159  10.50000  0.05    3.66
Q5    1   0.1946  0.0000  0.4823  10.50000  0.05    3.21
Q6    1   0.2276  0.0000  0.8548  10.50000  0.05    3.16
Q7    1   0.0928  0.0000  0.7953  10.50000  0.05    2.82
Q8    1   0.1077  0.0000  0.3821  10.50000  0.05    2.58
Q9    1   0.0442  0.0000  0.8349  10.50000  0.05    2.58
Q10   1   0.2298 -0.5000  0.7831  10.50000  0.05    2.41
Q11   1   0.3357  0.0000  0.9162  10.50000  0.05    2.25
Q12   1   0.2705 -0.6740  0.7568  11.00000  0.05    2.02
Q13   1  -0.0658 -0.3089  0.4788  11.00000  0.05    1.93
Q14   1  -0.1092 -0.5000  0.7850  10.50000  0.05    1.88
Q15   1   0.1586  0.0000  0.3499  10.50000  0.05    1.87
Q16   1   0.0823  0.0000  0.9635  10.50000  0.05    1.74
Q17   1   0.0839  0.1387  0.5566  11.00000  0.05    1.68
Q18   1   0.3207  0.0862  0.9993  11.00000  0.05    1.66
Q19   1   0.0000 -0.5000  1.0000  10.25000  0.05    1.65
Q20   1   0.1905  0.1581  0.5698  11.00000  0.05    1.64
