TITL 1 in C2/m 
CELL 0.71073  15.8567   4.3147   7.0971  90.000 106.878  90.000 
ZERR    2.00   0.0031   0.0008   0.0014   0.000   0.003   0.000 
LATT  7 
SYMM -X, Y, -Z 
SFAC GE RH IN SM 
UNIT 8 4 2 8 
TEMP 23.000 
SIZE 0.014 0.018 0.10 
 
L.S. 4 
BOND 
FMAP 2 
PLAN 20 
 
MOLE   1 
SM1   4  0.0872  0.0000  0.8836 10.500000  0.05 
SM2   4  0.1547  0.0000  0.4315 10.500000  0.05 
IN3   3  0.0000 -0.5000  0.5000 10.250000  0.05 
IN4   3  0.2799  0.0000  0.8778 10.500000  0.05 
GE5   1 -0.0649 -0.5000  0.8437 10.500000  0.05 
GE6   1  0.2021 -0.5000  0.7578 10.500000  0.05 
Q1    1  0.1520 -0.5000  0.5635 10.500000  0.05  123.36 
Q2    1  0.0344  0.0000  0.5532 10.500000  0.05   40.70 
Q3    1 -0.0255  0.0000  0.6750 10.500000  0.05   40.47 
Q4    1  0.0634  0.0000  1.1789 10.500000  0.05   40.08 
Q5    1  0.0000 -0.2876  1.0000 10.500000  0.05   28.65 
Q6    1  0.1788  0.1624  1.1434 11.000000  0.05   28.56 
Q7    1  0.0179 -0.5000  0.7413 10.500000  0.05   27.65 
Q8    1  0.0421  0.1715  0.5528 11.000000  0.05   25.96 
Q9    1  0.1480  0.2893  1.1747 11.000000  0.05   25.65 
MOLE   2 
HKLF 4                                                                          
END  
